
Gurobi 12.0.2 (mac64[arm]) logging started Sat Jun 14 00:23:25 2025

Set parameter LogFile to value "/Users/yurunfeng/Documents/GitHub/LRGTS-store-location/result/gurobi/snyder/150nodes/150-0.95-3.log"
Gurobi Optimizer version 12.0.2 build v12.0.2rc0 (mac64[arm] - Darwin 24.5.0 24F74)

CPU model: Apple M4
Thread count: 10 physical cores, 10 logical processors, using up to 10 threads

Non-default parameters:
TimeLimit  1200

Optimize a model with 3510600 rows, 6795450 columns and 32209486 nonzeros
Model fingerprint: 0x78dbc7e4
Variable types: 3397650 continuous, 3397800 integer (3397800 binary)
Coefficient statistics:
  Matrix range     [5e-02, 1e+00]
  Objective range  [9e+01, 8e+06]
  Bounds range     [1e+00, 1e+00]
  RHS range        [1e+00, 3e+00]
Found heuristic solution: objective 6.624322e+07
Presolve removed 22800 rows and 22650 columns (presolve time = 5s)...
Presolve removed 22800 rows and 22650 columns (presolve time = 10s)...
Presolve removed 45300 rows and 22650 columns (presolve time = 15s)...
Presolve removed 45300 rows and 22650 columns (presolve time = 21s)...
Presolve removed 45300 rows and 22650 columns (presolve time = 25s)...
Presolve removed 45300 rows and 22650 columns (presolve time = 30s)...
Presolve removed 45300 rows and 22650 columns (presolve time = 40s)...
Presolve removed 45300 rows and 22650 columns (presolve time = 45s)...
Presolve removed 45300 rows and 22650 columns (presolve time = 50s)...
Presolve removed 45300 rows and 22650 columns (presolve time = 75s)...
Presolve removed 45300 rows and 22650 columns (presolve time = 81s)...
Presolve removed 45300 rows and 22650 columns
Presolve time: 84.78s
Presolved: 3465300 rows, 6772800 columns, 28967211 nonzeros
Variable types: 3375000 continuous, 3397800 integer (3397800 binary)
Deterministic concurrent LP optimizer: primal simplex, dual simplex, and barrier
Showing barrier log only...

Root barrier log...

Elapsed ordering time = 12s
Elapsed ordering time = 15s
Ordering time: 15.50s

Barrier performed 0 iterations in 113.73 seconds (251.18 work units)
Barrier solve interrupted - model solved by another algorithm

Concurrent spin time: 9.33s (can be avoided by choosing Method=3)

Solved with dual simplex

Root simplex log...

Iteration    Objective       Primal Inf.    Dual Inf.      Time
   20376    2.2341549e+06   0.000000e+00   0.000000e+00    114s

Root relaxation: objective 2.234155e+06, 20376 iterations, 26.61 seconds (35.45 work units)

    Nodes    |    Current Node    |     Objective Bounds      |     Work
 Expl Unexpl |  Obj  Depth IntInf | Incumbent    BestBd   Gap | It/Node Time

     0     0 2234154.90    0 2975 6.6243e+07 2234154.90  96.6%     -  126s
H    0     0                    2628324.3848 2234154.90  15.0%     -  211s
     0     0 2249063.39    0 4989 2628324.38 2249063.39  14.4%     -  834s
     0     0 2252889.56    0 4913 2628324.38 2252889.56  14.3%     -  877s
H    0     0                    2536866.2856 2252889.56  11.2%     -  984s
H    0     0                    2530903.3424 2252889.56  11.0%     -  985s
H    0     0                    2526311.8407 2252889.56  10.8%     -  986s
H    0     0                    2521600.5935 2252889.56  10.7%     - 1028s
H    0     0                    2521600.5920 2252889.56  10.7%     - 1028s
     0     0 2253571.65    0 5246 2521600.59 2253571.65  10.6%     - 1046s

Cutting planes:
  Gomory: 3
  Cover: 8
  MIR: 166
  Flow cover: 465
  RLT: 19

Explored 1 nodes (78714 simplex iterations) in 1202.38 seconds (2329.15 work units)
Thread count was 10 (of 10 available processors)

Solution count 7: 2.5216e+06 2.5216e+06 2.52631e+06 ... 6.62432e+07

Time limit reached
Best objective 2.521600591998e+06, best bound 2.253571645344e+06, gap 10.6293%
